15,2	0,0	5,8	17,2	0,0	0,0	0,0	0,0	0,0	15,0
7,2	8,2	0,0	20,0	10,8	0,0	0,0	7,3	0,0	0,0
0,0	0,0	18,4	0,0	17,5	17,7	0,0	0,0	6,8	0,0
7,8	0,0	8,6	0,0	0,0	0,0	7,6	0,0	0,0	0,0
0,0	13,0	0,0	5,6	19,6	0,0	0,0	14,6	0,0	0,0
0,0	10,0	11,3	0,0	6,7	10,9	0,0	0,0	19,7	0,0
0,0	11,6	0,0	15,5	0,0	0,0	13,6	0,0	0,0	9,0
18,3	0,0	17,2	0,0	0,0	0,0	0,0	0,0	0,0	20,0
0,0	9,9	0,0	16,7	17,4	0,0	0,0	15,7	0,0	0,0
0,0	0,0	14,4	0,0	0,0	13,7	15,4	0,0	0,0	15,9
0,0	6,2	0,0	0,0	12,0	0,0	16,4	0,0	9,7	18,7
5,9	0,0	18,8	0,0	16,7	0,0	7,4	5,8	12,1	0,0
0,0	9,7	0,0	0,0	0,0	14,4	0,0	5,5	12,1	13,7
6,0	17,9	14,6	0,0	0,0	6,5	0,0	13,0	11,4	0,0
7,7	0,0	12,1	0,0	15,8	17,2	9,0	9,8	0,0	0,0
0,0	17,4	0,0	9,1	0,0	17,5	0,0	10,2	0,0	0,0
17,3	0,0	16,0	8,7	19,0	0,0	0,0	12,4	0,0	0,0
0,0	0,0	18,3	0,0	0,0	18,3	6,0	0,0	8,7	16,0
11,9	0,0	0,0	13,5	17,1	13,7	9,2	15,6	0,0	11,2
0,0	11,5	0,0	16,5	0,0	0,0	15,1	0,0	16,6	9,3
									
4,5	3,7	2,9	4,3	4,2	3,9	3,1	4,6	4,8	3,1
